59 60
80 11 1
79 23 1
39 35 1
97 43 1
90 13 1
83 41 1
71 44 1
6 77 1
73 27 1
94 20 1
41 75 1
28 66 1
99 3 1
78 11 1
34 97 1
74 49 1
98 41 1
71 14 1
92 39 1
70 8 1
57 90 1
72 29 1
69 44 1
75 28 1
87 1 1
81 5 1
89 11 1
88 10 1
75 23 1
98 43 1
24 92 1
75 4 2
10 70 1
88 43 1
83 29 1
5 10 1
78 4 1
31 68 1
92 31 1
72 27 1
91 11 1
93 27 1
13 96 1
82 6 1
77 30 1
73 12 1
100 69 1
66 46 1
72 11 1
44 8 1
98 55 1
40 48 1
92 16 1
71 4 1
93 12 1
79 57 1
97 36 1
86 14 1
67 38 1
100 100 
100 100 
100 100 
100 100 
100 100 
100 100 
100 100 
100 100 
100 100 
100 100 
100 100 
100 100 
100 100 
100 100 
100 100 
100 100 
100 100 
100 100 
100 100 
100 100 
100 100 
100 100 
100 100 
100 100 
100 100 
100 100 
100 100 
100 100 
100 100 
100 100 
100 100 
100 100 
100 100 
100 100 
100 100 
100 100 
100 100 
100 100 
100 100 
100 100 
100 100 
100 100 
100 100 
100 100 
100 100 
100 100 
100 100 
100 100 
100 100 
100 100 
100 100 
100 100 
100 100 
100 100 
100 100 
100 100 
100 100 
100 100 
100 100 
100 100 
